



















































21 5 
90 2 
33 23 
8 39 
82 73 
76 111 
44 75 
71 4 
13 64 
67 86 
70 7 
3 102 
16 93 
58 0 
18 34 
94 19 
55 28 
106 88 
103 96 
81 17 
98 26 
100 72 
32 48 
104 89 
77 59 
27 95 
57 49 
101 78 
63 31 
52 38 
79 25 
87 108 
10 35 
11 29 
45 46 
42 36 
20 15 
40 22 
107 85 
53 37 
43 54 
80 
99 60 
12 
69 61 
113 66 
84 
110 51 
109 112 

91 
105 
56 24 
92 9 
114 65 
30 1 
62 14 
83 68 
47 
74 
50 97 
6 
41 
